NAME : X_26_seed_123_id_19
TYPE : CVRP
DIMENSION : 219
EDGE_WEIGHT_TYPE : EUC_2D
CAPACITY : 3
NODE_COORD_SECTION
1	0	0
2	810	703
3	517	432
4	22	520
5	384	534
6	761	949
7	162	154
8	174	770
9	987	101
10	141	536
11	560	406
12	609	818
13	701	6
14	598	180
15	699	928
16	859	403
17	292	1
18	862	162
19	343	181
20	816	3
21	964	144
22	215	73
23	818	717
24	464	658
25	88	746
26	958	568
27	652	776
28	132	553
29	528	642
30	843	745
31	301	821
32	107	403
33	741	277
34	41	334
35	423	822
36	6	196
37	704	975
38	443	329
39	871	576
40	354	269
41	124	289
42	430	747
43	655	109
44	376	586
45	277	537
46	903	365
47	647	774
48	700	614
49	679	129
50	924	664
51	850	420
52	111	655
53	323	665
54	128	376
55	756	155
56	24	672
57	325	341
58	151	68
59	956	724
60	751	110
61	814	153
62	490	236
63	92	436
64	233	465
65	29	880
66	162	915
67	800	510
68	763	581
69	65	404
70	982	435
71	594	866
72	910	175
73	287	344
74	930	847
75	815	633
76	650	459
77	750	274
78	563	623
79	757	139
80	484	409
81	560	439
82	295	463
83	645	995
84	996	570
85	127	770
86	656	753
87	265	997
88	395	814
89	835	977
90	913	929
91	415	341
92	430	408
93	109	288
94	781	242
95	313	125
96	673	431
97	259	535
98	616	473
99	953	880
100	343	852
101	434	163
102	351	216
103	823	298
104	529	335
105	591	929
106	203	365
107	556	434
108	478	101
109	722	997
110	428	585
111	635	295
112	432	803
113	277	25
114	488	438
115	840	792
116	600	264
117	146	226
118	985	969
119	335	777
120	315	123
121	69	200
122	824	618
123	896	631
124	638	578
125	113	35
126	307	351
127	741	151
128	378	590
129	876	621
130	170	162
131	484	318
132	186	489
133	60	735
134	913	262
135	206	383
136	324	284
137	859	973
138	273	937
139	730	578
140	341	17
141	382	117
142	380	296
143	774	202
144	235	574
145	751	79
146	378	356
147	565	378
148	408	771
149	808	289
150	715	211
151	468	729
152	241	483
153	233	8
154	270	62
155	793	789
156	428	713
157	535	255
158	454	735
159	598	229
160	177	690
161	594	506
162	843	307
163	15	184
164	536	371
165	197	70
166	430	512
167	944	861
168	361	670
169	517	861
170	374	315
171	533	915
172	61	115
173	768	108
174	503	615
175	71	972
176	852	947
177	526	329
178	850	165
179	336	490
180	816	395
181	575	38
182	962	623
183	931	934
184	366	156
185	586	981
186	29	351
187	409	755
188	31	630
189	795	718
190	680	54
191	217	820
192	508	563
193	909	288
194	287	609
195	110	421
196	160	971
197	263	777
198	987	346
199	636	533
200	695	16
201	353	869
202	830	789
203	294	469
204	206	58
205	554	61
206	601	235
207	615	339
208	875	19
209	478	111
210	530	437
211	347	225
212	130	723
213	333	559
214	891	383
215	337	138
216	626	109
217	223	626
218	846	975
219	88	959
DEMAND_SECTION
1	0
2	1
3	1
4	1
5	1
6	1
7	1
8	1
9	1
10	1
11	1
12	1
13	1
14	1
15	1
16	1
17	1
18	1
19	1
20	1
21	1
22	1
23	1
24	1
25	1
26	1
27	1
28	1
29	1
30	1
31	1
32	1
33	1
34	1
35	1
36	1
37	1
38	1
39	1
40	1
41	1
42	1
43	1
44	1
45	1
46	1
47	1
48	1
49	1
50	1
51	1
52	1
53	1
54	1
55	1
56	1
57	1
58	1
59	1
60	1
61	1
62	1
63	1
64	1
65	1
66	1
67	1
68	1
69	1
70	1
71	1
72	1
73	1
74	1
75	1
76	1
77	1
78	1
79	1
80	1
81	1
82	1
83	1
84	1
85	1
86	1
87	1
88	1
89	1
90	1
91	1
92	1
93	1
94	1
95	1
96	1
97	1
98	1
99	1
100	1
101	1
102	1
103	1
104	1
105	1
106	1
107	1
108	1
109	1
110	1
111	1
112	1
113	1
114	1
115	1
116	1
117	1
118	1
119	1
120	1
121	1
122	1
123	1
124	1
125	1
126	1
127	1
128	1
129	1
130	1
131	1
132	1
133	1
134	1
135	1
136	1
137	1
138	1
139	1
140	1
141	1
142	1
143	1
144	1
145	1
146	1
147	1
148	1
149	1
150	1
151	1
152	1
153	1
154	1
155	1
156	1
157	1
158	1
159	1
160	1
161	1
162	1
163	1
164	1
165	1
166	1
167	1
168	1
169	1
170	1
171	1
172	1
173	1
174	1
175	1
176	1
177	1
178	1
179	1
180	1
181	1
182	1
183	1
184	1
185	1
186	1
187	1
188	1
189	1
190	1
191	1
192	1
193	1
194	1
195	1
196	1
197	1
198	1
199	1
200	1
201	1
202	1
203	1
204	1
205	1
206	1
207	1
208	1
209	1
210	1
211	1
212	1
213	1
214	1
215	1
216	1
217	1
218	1
219	1
DEPOT_SECTION
1
-1
EOF
